minimize
obj: 2.6 x_1__out + 1.5 x_2__out + 4 x_3__out + 7 x_4__out + 2.1 x_5__out + 5.7 z_1_ + 9.4 z_2_ + 6.4 z_3_ + 6.7 z_4_ + 5 z_5_ + 1 x16
subject to
knapsack_1_: 9 x_1__out + 98 x_2__out + 16 x_3__out + 94 x_4__out + 67 x_5__out + 76 z_1_ + 29 z_2_ + 35 z_3_ + 5 z_4_ + 6 z_5_ >= 326.25
knapsack_2_: 66 x_1__out + 64 x_2__out + 62 x_3__out + 3 x_4__out + 49 x_5__out + 11 z_1_ + 75 z_2_ + 34 z_3_ + 69 z_4_ + 67 z_5_ >= 375
c3: 1 x16 >= 57.012768399670776
c4: 1 x16 >= 58.06633652896796
c5: 1 x16 >= 58.36253241532791
c6: 1 x16 >= 59.26334920956966
c7: 1 x16 >= 59.45856564273071
c8: 1 x16 >= 59.68005565495015
c9: 1 x16 >= 59.7072541095057
c10: 1 x16 >= 60.7021303212785
Bounds
x_1__in = 0
x_2__in = 0
x_3__in = 0
x_4__in = 0
x_5__in = 0
x_1__out >= 0
x_2__out >= 0
x_3__out >= 0
x_4__out >= 0
x_5__out >= 0
z_1_ >= 0
z_2_ >= 0
z_3_ >= 0
z_4_ >= 0
z_5_ >= 0
x16 >= 0
Binary
x_1__out
x_2__out
x_3__out
x_4__out
x_5__out
z_1_
z_2_
z_3_
z_4_
z_5_
End
